
Gurobi 11.0.0 (linux64) logging started Fri Apr 12 22:43:45 2024

Set parameter LogFile to value "/lustre1/scratch/348/vsc34888/JointResearch/05.Models/06.Benchmarking/K.Investments_per_hour/9n_ByStages_nc50/openStarNet_9n_ByStages_nc50.log"
Set parameter Method to value 2
Set parameter MIPFocus to value 1
Set parameter Presolve to value 2
Set parameter RINS to value 100
Set parameter MIPGap to value 0.01
Set parameter Threads to value 36
Set parameter TimeLimit to value 259200
Set parameter IterationLimit to value 760000000
Gurobi Optimizer version 11.0.0 build v11.0.0rc2 (linux64 - "Rocky Linux 8.8 (Green Obsidian)")

CPU model: Intel(R) Xeon(R) Gold 6140 CPU @ 2.30GHz, instruction set [SSE2|AVX|AVX2|AVX512]
Thread count: 36 physical cores, 36 logical processors, using up to 36 threads

Optimize a model with 13103 rows, 6907 columns and 39429 nonzeros
Model fingerprint: 0xee88790c
Variable types: 6871 continuous, 36 integer (36 binary)
Coefficient statistics:
  Matrix range     [8e-04, 1e+03]
  Objective range  [1e+00, 1e+00]
  Bounds range     [4e-04, 2e+00]
  RHS range        [4e-04, 1e+00]
Presolve removed 4453 rows and 2354 columns
Presolve time: 0.06s
Presolved: 8650 rows, 4553 columns, 29517 nonzeros
Variable types: 4517 continuous, 36 integer (36 binary)
Found heuristic solution: objective 962.7924635
Root relaxation presolved: 8650 rows, 4553 columns, 29517 nonzeros

Root barrier log...

Ordering time: 0.01s

Barrier statistics:
 Dense cols : 36
 AA' NZ     : 1.024e+05
 Factor NZ  : 2.029e+05 (roughly 7 MB of memory)
 Factor Ops : 6.756e+06 (less than 1 second per iteration)
 Threads    : 36

                  Objective                Residual
Iter       Primal          Dual         Primal    Dual     Compl     Time
   0   4.66985293e+05 -2.16133196e+07  7.10e+00 2.39e+02  4.93e+03     0s
   1   7.44093469e+04 -8.66724258e+06  9.65e-01 1.02e-09  7.48e+02     0s
   2   1.46932689e+04 -1.94424551e+06  2.74e-02 4.46e-10  1.18e+02     0s
   3   5.03800199e+03 -4.37868715e+04  4.17e-14 1.92e-11  2.89e+00     0s
   4   1.29510792e+03 -1.25037733e+04  1.38e-14 4.71e-12  8.16e-01     0s
   5   7.17583701e+02 -5.84476368e+03  4.53e-14 2.19e-12  3.88e-01     0s
   6   5.55305225e+02 -2.03028461e+03  2.40e-14 9.09e-13  1.53e-01     0s
   7   3.86862562e+02 -5.83335700e+02  5.51e-14 9.09e-13  5.74e-02     0s
   8   2.80714036e+02 -1.46175921e+02  6.48e-14 4.55e-13  2.53e-02     0s
   9   1.33249487e+02  5.35351441e+01  5.47e-13 9.09e-13  4.72e-03     0s
  10   1.12855076e+02  8.36506140e+01  6.66e-12 4.55e-13  1.73e-03     0s
  11   1.04634955e+02  8.86776215e+01  2.34e-12 9.09e-13  9.44e-04     0s
  12   1.02544292e+02  9.34195978e+01  1.60e-12 9.09e-13  5.40e-04     0s
  13   1.01470402e+02  9.73604971e+01  1.13e-12 9.09e-13  2.43e-04     0s
  14   1.01100921e+02  9.74506395e+01  3.86e-12 9.09e-13  2.16e-04     0s
  15   1.00482002e+02  9.85795431e+01  1.17e-11 9.09e-13  1.13e-04     0s
  16   9.97704594e+01  9.96029393e+01  2.21e-11 9.09e-13  9.91e-06     0s
  17   9.97139601e+01  9.96657352e+01  3.90e-10 9.09e-13  2.85e-06     0s
  18   9.96992978e+01  9.96985183e+01  4.15e-09 9.09e-13  4.61e-08     0s
  19   9.96991788e+01  9.96991779e+01  3.55e-09 9.09e-13  4.86e-11     1s

Barrier solved model in 19 iterations and 0.51 seconds (0.21 work units)
Optimal objective 9.96991788e+01


Root relaxation: objective 9.969918e+01, 512 iterations, 0.47 seconds (0.10 work units)

    Nodes    |    Current Node    |     Objective Bounds      |     Work
 Expl Unexpl |  Obj  Depth IntInf | Incumbent    BestBd   Gap | It/Node Time

     0     0   99.69918    0    6  962.79246   99.69918  89.6%     -    0s
H    0     0                     806.8191459   99.69918  87.6%     -    0s
H    0     0                     804.8878447   99.69918  87.6%     -    0s
     0     0  107.84288    0    2  804.88784  107.84288  86.6%     -    0s
H    0     0                     165.2463975  107.84288  34.7%     -    1s
H    0     0                     121.6998868  107.84288  11.4%     -    1s
H    0     0                     108.0522318  107.84288  0.19%     -    1s
     0     0  107.95766    0    2  108.05223  107.95766  0.09%     -    1s

Cutting planes:
  Gomory: 1
  MIR: 45
  RLT: 1
  Relax-and-lift: 7

Explored 1 nodes (617 simplex iterations) in 1.12 seconds (0.33 work units)
Thread count was 36 (of 36 available processors)

Solution count 6: 108.052 121.7 165.246 ... 962.792

Optimal solution found (tolerance 1.00e-02)
Best objective 1.080522317718e+02, best bound 1.079576622143e+02, gap 0.0875%

Gurobi 11.0.0 (linux64) logging started Fri Apr 12 22:43:48 2024

Set parameter LogFile to value "/lustre1/scratch/348/vsc34888/JointResearch/05.Models/06.Benchmarking/K.Investments_per_hour/9n_ByStages_nc50/openStarNet_9n_ByStages_nc50.log"
Set parameter Method to value 2
Set parameter MIPFocus to value 1
Set parameter Presolve to value 2
Set parameter RINS to value 100
Set parameter MIPGap to value 0.01
Set parameter Threads to value 36
Set parameter TimeLimit to value 259200
Set parameter IterationLimit to value 760000000
Gurobi Optimizer version 11.0.0 build v11.0.0rc2 (linux64 - "Rocky Linux 8.8 (Green Obsidian)")

CPU model: Intel(R) Xeon(R) Gold 6140 CPU @ 2.30GHz, instruction set [SSE2|AVX|AVX2|AVX512]
Thread count: 36 physical cores, 36 logical processors, using up to 36 threads

Optimize a model with 13103 rows, 6871 columns and 32193 nonzeros
Model fingerprint: 0x81994ca9
Coefficient statistics:
  Matrix range     [8e-04, 1e+03]
  Objective range  [1e+00, 1e+00]
  Bounds range     [4e-04, 2e+00]
  RHS range        [4e-04, 2e+01]
Presolve removed 11903 rows and 4632 columns
Presolve time: 0.01s
Presolved: 1200 rows, 2312 columns, 5358 nonzeros

Ordering time: 0.00s

Barrier statistics:
 AA' NZ     : 3.028e+03
 Factor NZ  : 1.260e+04 (roughly 2 MB of memory)
 Factor Ops : 1.730e+05 (less than 1 second per iteration)
 Threads    : 1

                  Objective                Residual
Iter       Primal          Dual         Primal    Dual     Compl     Time
   0   4.70236088e+05 -1.51358949e+07  5.49e+00 3.88e+02  1.32e+04     0s
   1   7.34423390e+04 -6.90168626e+06  7.03e-01 1.18e-11  2.18e+03     0s
   2   2.01908955e+04 -1.85549449e+06  4.00e-02 2.00e-11  3.77e+02     0s
   3   1.14558311e+04 -6.30158933e+04  5.11e-15 7.51e-11  1.40e+01     0s
   4   1.55049189e+03 -4.65202379e+03  5.33e-15 6.59e-12  1.16e+00     0s
   5   8.02054100e+02 -1.28441931e+03  2.78e-15 3.64e-12  3.92e-01     0s
   6   4.71693472e+02 -2.86996451e+02  1.22e-15 3.64e-12  1.42e-01     0s
   7   2.58366547e+02 -9.42986580e+00  1.78e-15 3.64e-12  5.03e-02     0s
   8   1.75903683e+02  6.01994147e+01  1.62e-14 1.82e-12  2.17e-02     0s
   9   1.27855403e+02  9.19553827e+01  1.75e-14 1.82e-12  6.74e-03     0s
  10   1.12658232e+02  1.04583519e+02  8.13e-15 1.82e-12  1.52e-03     0s
  11   1.08921236e+02  1.07465525e+02  2.21e-14 1.82e-12  2.73e-04     0s
  12   1.08272049e+02  1.08007768e+02  3.42e-14 3.64e-12  4.96e-05     0s
  13   1.08109365e+02  1.08031821e+02  1.03e-12 1.82e-12  1.46e-05     0s
  14   1.08058627e+02  1.08047093e+02  6.04e-11 1.82e-12  2.16e-06     0s
  15   1.08052304e+02  1.08052112e+02  1.10e-11 3.64e-12  3.61e-08     0s
  16   1.08052232e+02  1.08052232e+02  1.08e-11 1.82e-12  3.77e-11     0s

Barrier solved model in 16 iterations and 0.03 seconds (0.03 work units)
Optimal objective 1.08052232e+02

Crossover log...

     579 DPushes remaining with DInf 0.0000000e+00                 0s
       0 DPushes remaining with DInf 0.0000000e+00                 0s

       8 PPushes remaining with PInf 0.0000000e+00                 0s
       0 PPushes remaining with PInf 0.0000000e+00                 0s

  Push phase complete: Pinf 0.0000000e+00, Dinf 2.5138593e-13      0s

Iteration    Objective       Primal Inf.    Dual Inf.      Time
      54    1.0805223e+02   0.000000e+00   0.000000e+00      0s

Solved in 54 iterations and 0.04 seconds (0.03 work units)
Optimal objective  1.080522318e+02
